NAME: C102
COMMENT: converted from Solomon txt
TYPE: VRPTW
VEHICLES: 25
DIMENSION: 101
CAPACITY: 200
EDGE_WEIGHT_TYPE: EUC_2D
NODE_COORD_SECTION
1	40.0	50.0
2	45.0	68.0
3	45.0	70.0
4	42.0	66.0
5	42.0	68.0
6	42.0	65.0
7	40.0	69.0
8	40.0	66.0
9	38.0	68.0
10	38.0	70.0
11	35.0	66.0
12	35.0	69.0
13	25.0	85.0
14	22.0	75.0
15	22.0	85.0
16	20.0	80.0
17	20.0	85.0
18	18.0	75.0
19	15.0	75.0
20	15.0	80.0
21	30.0	50.0
22	30.0	52.0
23	28.0	52.0
24	28.0	55.0
25	25.0	50.0
26	25.0	52.0
27	25.0	55.0
28	23.0	52.0
29	23.0	55.0
30	20.0	50.0
31	20.0	55.0
32	10.0	35.0
33	10.0	40.0
34	8.0	40.0
35	8.0	45.0
36	5.0	35.0
37	5.0	45.0
38	2.0	40.0
39	0.0	40.0
40	0.0	45.0
41	35.0	30.0
42	35.0	32.0
43	33.0	32.0
44	33.0	35.0
45	32.0	30.0
46	30.0	30.0
47	30.0	32.0
48	30.0	35.0
49	28.0	30.0
50	28.0	35.0
51	26.0	32.0
52	25.0	30.0
53	25.0	35.0
54	44.0	5.0
55	42.0	10.0
56	42.0	15.0
57	40.0	5.0
58	40.0	15.0
59	38.0	5.0
60	38.0	15.0
61	35.0	5.0
62	50.0	30.0
63	50.0	35.0
64	50.0	40.0
65	48.0	30.0
66	48.0	40.0
67	47.0	35.0
68	47.0	40.0
69	45.0	30.0
70	45.0	35.0
71	95.0	30.0
72	95.0	35.0
73	53.0	30.0
74	92.0	30.0
75	53.0	35.0
76	45.0	65.0
77	90.0	35.0
78	88.0	30.0
79	88.0	35.0
80	87.0	30.0
81	85.0	25.0
82	85.0	35.0
83	75.0	55.0
84	72.0	55.0
85	70.0	58.0
86	68.0	60.0
87	66.0	55.0
88	65.0	55.0
89	65.0	60.0
90	63.0	58.0
91	60.0	55.0
92	60.0	60.0
93	67.0	85.0
94	65.0	85.0
95	65.0	82.0
96	62.0	80.0
97	60.0	80.0
98	60.0	85.0
99	58.0	75.0
100	55.0	80.0
101	55.0	85.0
DEMAND_SECTION
1	0
2	10
3	30
4	10
5	10
6	10
7	20
8	20
9	20
10	10
11	10
12	10
13	20
14	30
15	10
16	40
17	40
18	20
19	20
20	10
21	10
22	20
23	20
24	10
25	10
26	40
27	10
28	10
29	20
30	10
31	10
32	20
33	30
34	40
35	20
36	10
37	10
38	20
39	30
40	20
41	10
42	10
43	20
44	10
45	10
46	10
47	30
48	10
49	10
50	10
51	10
52	10
53	10
54	20
55	40
56	10
57	30
58	40
59	30
60	10
61	20
62	10
63	20
64	50
65	10
66	10
67	10
68	10
69	10
70	10
71	30
72	20
73	10
74	10
75	50
76	20
77	10
78	10
79	20
80	10
81	10
82	30
83	20
84	10
85	20
86	30
87	10
88	20
89	30
90	10
91	10
92	10
93	20
94	40
95	10
96	30
97	10
98	30
99	20
100	10
101	20
DEPOT_SECTION
1
TIME_WINDOW_SECTION
1	0.0	1236.0
2	0.0	1127.0
3	0.0	1125.0
4	0.0	1129.0
5	727.0	782.0
6	0.0	1130.0
7	621.0	702.0
8	0.0	1130.0
9	255.0	324.0
10	534.0	605.0
11	357.0	410.0
12	448.0	505.0
13	0.0	1107.0
14	30.0	92.0
15	567.0	620.0
16	384.0	429.0
17	475.0	528.0
18	99.0	148.0
19	179.0	254.0
20	278.0	345.0
21	10.0	73.0
22	0.0	1135.0
23	812.0	883.0
24	732.0	777.0
25	65.0	144.0
26	169.0	224.0
27	0.0	1130.0
28	261.0	316.0
29	546.0	593.0
30	358.0	405.0
31	449.0	504.0
32	0.0	1112.0
33	31.0	100.0
34	87.0	158.0
35	0.0	1113.0
36	283.0	344.0
37	665.0	716.0
38	0.0	1106.0
39	479.0	522.0
40	567.0	624.0
41	264.0	321.0
42	166.0	235.0
43	68.0	149.0
44	16.0	80.0
45	359.0	412.0
46	541.0	600.0
47	448.0	509.0
48	1054.0	1127.0
49	0.0	1122.0
50	1001.0	1066.0
51	0.0	1123.0
52	725.0	786.0
53	0.0	1124.0
54	286.0	347.0
55	186.0	257.0
56	95.0	158.0
57	385.0	436.0
58	35.0	87.0
59	471.0	534.0
60	0.0	1110.0
61	562.0	629.0
62	531.0	610.0
63	262.0	317.0
64	171.0	218.0
65	632.0	693.0
66	76.0	129.0
67	826.0	875.0
68	12.0	77.0
69	734.0	777.0
70	916.0	969.0
71	387.0	456.0
72	293.0	360.0
73	0.0	1122.0
74	478.0	551.0
75	353.0	412.0
76	0.0	1130.0
77	203.0	260.0
78	574.0	643.0
79	109.0	170.0
80	668.0	731.0
81	769.0	820.0
82	47.0	124.0
83	0.0	1110.0
84	0.0	1113.0
85	458.0	523.0
86	0.0	1116.0
87	173.0	238.0
88	85.0	144.0
89	645.0	708.0
90	737.0	802.0
91	20.0	84.0
92	0.0	1123.0
93	368.0	441.0
94	475.0	518.0
95	0.0	1105.0
96	0.0	1108.0
97	0.0	1109.0
98	561.0	622.0
99	0.0	1115.0
100	743.0	820.0
101	647.0	726.0
SERVICE_TIME_SECTION
1	0.0
2	90.0
3	90.0
4	90.0
5	90.0
6	90.0
7	90.0
8	90.0
9	90.0
10	90.0
11	90.0
12	90.0
13	90.0
14	90.0
15	90.0
16	90.0
17	90.0
18	90.0
19	90.0
20	90.0
21	90.0
22	90.0
23	90.0
24	90.0
25	90.0
26	90.0
27	90.0
28	90.0
29	90.0
30	90.0
31	90.0
32	90.0
33	90.0
34	90.0
35	90.0
36	90.0
37	90.0
38	90.0
39	90.0
40	90.0
41	90.0
42	90.0
43	90.0
44	90.0
45	90.0
46	90.0
47	90.0
48	90.0
49	90.0
50	90.0
51	90.0
52	90.0
53	90.0
54	90.0
55	90.0
56	90.0
57	90.0
58	90.0
59	90.0
60	90.0
61	90.0
62	90.0
63	90.0
64	90.0
65	90.0
66	90.0
67	90.0
68	90.0
69	90.0
70	90.0
71	90.0
72	90.0
73	90.0
74	90.0
75	90.0
76	90.0
77	90.0
78	90.0
79	90.0
80	90.0
81	90.0
82	90.0
83	90.0
84	90.0
85	90.0
86	90.0
87	90.0
88	90.0
89	90.0
90	90.0
91	90.0
92	90.0
93	90.0
94	90.0
95	90.0
96	90.0
97	90.0
98	90.0
99	90.0
100	90.0
101	90.0
EOF
